DATASET = "thpack4";
INSTANCE = "029";

WIDTH = 233;
HEIGHT = 220;
LENGTH = 587;

NO_OF_SHAPES = 10;
size = [|
  91,58,57 |
  92,78,53 |
  112,48,28 |
  78,47,26 |
  41,40,28 |
  57,47,32 |
  54,47,40 |
  85,80,25 |
  89,86,54 |
  118,94,68 |
|];

verticality = [|
  1,1,1 |
  1,1,1 |
  0,1,1 |
  0,1,1 |
  1,1,1 |
  1,1,1 |
  1,1,1 |
  0,0,1 |
  1,1,1 |
  1,1,1 |
|];

box_count = [
  12,
  13,
  10,
  11,
  17,
  12,
  11,
  18,
  13,
  10,
];
